148917
56,11,46,6,26,32,10,16,57,8,20,23,30,18,21,43,81,39,55,80,33,48,59,2,42,50,71,1,34,74,15,37,14,60,40,62,38,51,77,82,67,58,49,3,64,17,12,36,44,63,0,9,28,72,53,61,69,13,79,45,70,65,35,25,66,75,19,73,76,31,4,47,52,7,78,29,27,5,68,24,41,22,54